NAME 
ROWS
 N  OBJ
 L  R0      
 L  R1      
 E  R2      
 E  R3      
 E  R4      
 E  R5      
 E  R6      
COLUMNS
    MARKER    'MARKER'                 'INTORG'
    I0(3)     OBJ       30
    I0(3)     R0        -69
    I0(3)     R1        -99
    I0(3)     R6        1
    I1(3)     OBJ       -153
    I1(3)     R0        -56
    I1(3)     R1        154
    I1(3)     R6        1
    I2(4)     OBJ       99
    I2(4)     R0        198
    I2(4)     R1        -51
    I2(4)     R3        6
    I2(4)     R6        1
    MARKER    'MARKER'                 'INTEND'
    C3(5)     OBJ       -3
    C3(5)     R0        -3
    C3(5)     R1        8
    C3(5)     R2        14
    C3(5)     R4        12
    C3(5)     R5        14
    C4(5)     OBJ       4
    C4(5)     R0        5
    C4(5)     R1        1
    C4(5)     R3        -1
    C4(5)     R4        16
    C4(5)     R5        14
    C5(1)     R2        1
    C6(1)     R3        1
    C7(1)     R4        1
    C8(1)     R5        1
    C9(1)     R6        1
RHS
    RHS1      R0        -6.7571428571428584e+01
    RHS1      R1        1.8485714285714289e+02
    RHS1      R2        74
    RHS1      R3        73
    RHS1      R4        99
    RHS1      R5        54
    RHS1      R6        1
BOUNDS
 UP BND1      I0(3)     1
 UP BND1      I1(3)     1
 UP BND1      I2(4)     1
ENDATA
